[[43, 4, 25, 6, 15, 5, 24, 48, 38, 40, 39, 37, 46, 44, 34, 35, 36, 49, 22, 31, 18, 32, 45], [10, 9, 8, 41, 19, 3, 17, 21, 42, 7, 2, 30, 23, 20, 50], [29, 16, 47, 26, 28, 27, 13, 14, 52, 11, 12, 51, 33]]